100
32
5
25
27
3
29
16
29
26
10
29
17
6
14
22
16
18
12
4
5
31
6
6
13
8
19
1
2
6
1
17
1
2
1
1
1
19
1
1
1
3
1
1
4
18
4
2
1
11
3
1
3
6
19
1
17
2
5
3
1
1
7
4
3
1
1
17
5
4
3
1
1
1
1
1
5
1
2
17
1
3
1
3
2
19
3
1
9
19
2
3
2
19
5
2
1
3
2
1
1
1